c description: Random 3-CNF over 9 variables and 18 clauses
p cnf 9 18
-2 -3 9 0
3 6 7 0
2 6 7 0
-1 -7 9 0
-1 3 5 0
5 7 9 0
1 6 9 0
2 -6 -9 0
-2 -6 9 0
-1 5 8 0
-1 6 -7 0
-2 3 -5 0
-1 3 7 0
-2 -4 -7 0
3 4 8 0
3 -5 9 0
5 8 -9 0
2 -7 -8 0